# Problem from Gecode/examples/minesweeper.cc  problem 1

param r := 8;
param c := 8;
param game: 1 2 3 4 5 6 7 8 :=
 1  . 2 . 2 1 1 . . 
 2  . . 4 . 2 . . 2 
 3  2 . . 2 . . 3 . 
 4  2 . 2 2 . 3 . 3 
 5  . . 1 . . . 4 . 
 6  1 . . . 2 . . 3 
 7  . 2 . 2 2 . 3 . 
 8  1 . 1 . . 1 . 1 
;

